data;

param w := 22;
param n := 16;
param min_h := 22;
param max_h := 35;

set BLOCKS := 1 2 3 4 5 6 7 8 9 10 11 12 13 14 15 16 ;

param:	width	height :=
	1	4	19
	2	3	22
	3	3	14
	4	3	13
	5	3	12
	6	3	11
	7	3	10
	8	3	9
	9	3	8
	10	6	4
	11	3	7
	12	3	6
	13	3	5
	14	3	4
	15	4	3
	16	3	3;